SAT
-1 -100 -99 98 -9 -91 90 38 -42 -28 -74 97 -29 -53 44 49 94 -93 34 61 -17 -30 -7 52 56 26 -18 -39 -14 -41 -33 54 46 2 71 -80 -77 -21 84 -72 60 -43 -88 22 81 95 70 58 48 76 37 -40 12 75 -45 -78 87 -15 55 36 -31 57 -23 5 68 82 64 -83 25 24 19 50 -47 3 32 63 -67 -20 59 27 -62 -8 13 16 -92 -65 -4 -89 85 -6 -69 11 51 -35 73 10 86 79 96 66 0
